n = 9;
values = 6;

puzzle =
[|
  -1, -1, -1, -1, 2, 1, -1, -1, 3 |
  -1, 0, 3, -1, -1, 6, -1, -1, 1 |
  -1, -1, 1, -1, -1, 3, -1, 4, -1 |
  -1, 3, -1, -1, -1, -1, 4, 1, 5 |
  4, 1, -1, 3, -1, -1, -1, -1, -1 |
  -1, -1, -1, 1, -1, -1, -1, -1, 2 |
  -1, -1, -1, 2, -1, 4, 3, -1, -1 |
  -1, 2, -1, -1, 3, -1, 6, 5, -1 |
  3, 0, -1, -1, -1, -1, -1, 2, -1 |
|];
